c Generated by SAT Solver
p cnf 1002 52
101 102 0
201 202 0
301 302 0
401 402 0
501 502 0
601 602 0
701 702 0
801 802 0
901 902 0
1001 1002 0
-101 -102 0
-201 -202 0
-301 -302 0
-401 -402 0
-501 -502 0
-601 -602 0
-701 -702 0
-801 -802 0
-901 -902 0
-1001 -1002 0
-101 -501 0
-102 -502 0
-101 -601 0
-102 -602 0
-101 -801 0
-102 -802 0
-101 -901 0
-102 -902 0
-201 -301 0
-202 -302 0
-201 -401 0
-202 -402 0
-201 -501 0
-202 -502 0
-301 -401 0
-302 -402 0
-401 -601 0
-402 -602 0
-401 -701 0
-402 -702 0
-501 -601 0
-502 -602 0
-501 -701 0
-502 -702 0
-501 -901 0
-502 -902 0
-601 -1001 0
-602 -1002 0
-701 -901 0
-702 -902 0
-701 -1001 0
-702 -1002 0
